\ Model mip1
\ LP format - for model browsing. Use MPS format to capture full model detail.
Minimize
  - 262.4067916666667 buy[Fajitas_con_Brocoli_d1]
   - 1952.14251 buy[Ensalada_verde_con_garbanzos_l2]
   - 1319.097441666666 buy[Albondigas_con_soya_l2]
   - 2320.41974375 buy[Huevo_con_huitlacoche_b1]
   - 1224.20425 buy[Guacamole_l3] - 767.5840125000001 buy[pico_de_gallo_d2]
   - 1382.98202 buy[ensalada_verde_con_pera_d2]
   - 405.9250833333334 buy[entomatado_de_res_l2]
   - 1172.6836 buy[cocktail_kiwi,_platano,_pera_y_guayaba_b4]
   - 250.445375 buy[rollos_de_milanesa_estilo_japones_l2]
   - 2243.58614375 buy[Huevo_con_pimiento_morron_b1]
   - 917.7577500000003 buy[burritos_de_frijol_con_carne_b1]
   - 2324.58394375 buy[Huevo_con_nopales_b1]
   - 3545.526960714286 buy[Espinacas_con_tocino_ahumado_d2]
   - 2536.6004175 buy[Hamburguesas_de_pollo_y_calabaza_d1]
   - 2674.87649375 buy[Huevo_con_espinacas_b1]
   - 609.3091666666667 buy[Rajas_con_crema_l4]
   - 1776.574 buy[tiras_de_res_sobre_pasta_d1]
   - 1630.812208333334 buy[rollitos_de_carne_l2]
   - 2175.4119725 buy[atun_a_la_vizcaina_d1] - 1351.722 buy[Quesadillas_b1]
   - 1573.874966666667 buy[Falafel_(croquetas_de_garbanzo)_d1]
   - 110.23245 buy[caldo_de_res_con_hongos_d1]
   - 323.9910833333333 buy[ensalada_de_alubias_l4]
   - 262.4067916666667 buy[Fajitas_con_Brocoli_l2]
   - 767.5840125000001 buy[pico_de_gallo_l3]
   - 3143.888050000001 buy[croquetas_de_papa_d1]
   - 3545.526960714286 buy[Espinacas_con_tocino_ahumado_l3]
   - 2344.974 buy[Sincronizadas_b1]
   - 2177.537342857143 buy[Pierna_adobada_l2]
   - 3144.797500000001 buy[Huevo_con_chorizo_b1]
   - 2175.4119725 buy[atun_a_la_vizcaina_l2]
   - 4371.5375 buy[huevos_estrellados_con_tocino_b1]
   - 1382.98202 buy[ensalada_verde_con_pera_l4]
   - 2729.55774375 buy[Huevo_con_champiñones_b1]
   - 306.2409416666667 buy[manitas_de_cerdo_y_habas_en_salsa_verde_l2]
   - 2725.339985714285 buy[Albondigas_en_chipotle_l2]
   - 1273.143883333333 buy[sopa_de_huitlacoche_l1]
   - 813.0277499999999 buy[crema_de_champiñones_con_pollo_l1]
   - 380.7425000000001 buy[pasta_en_salsa_blanca_d2]
   - 2185.04474375 buy[Quesadillas_con_flor_de_calabaza_d1]
   - 2136.170083333333 buy[sopa_de_pasta_con_chicharos_l1]
   - 1329.743658333334 buy[Champiñones_salteados_b2]
   - 932.1831250000001 buy[fajitas_con_ensalada_de_lechugas_mixtas_d1]
   - 2683.298 buy[Quesadillas_con_chorizo_d1]
   - 2349.02974375 buy[Quesadillas_con_champiñones_b1]
   - 1053.04485 buy[asado_con_papas_l2]
   - 1776.574 buy[tiras_de_res_sobre_pasta_l2]
   - 1486.57545 buy[papaya_con_platano_b4]
   - 595.8590833333334 buy[Quiche_de_germinado_b1]
   - 1952.14251 buy[Ensalada_verde_con_garbanzos_d1]
   - 1053.04485 buy[asado_con_papas_d1]
   - 1939.89174375 buy[Quesadillas_con_huitlacoche_d1]
   - 1018.3571 buy[Chilaquiles_jaliscienses_con_huevo_b1]
   - 1958.464925 buy[sopa_de_nopales_l1]
   - 1987.755483333334 buy[Pastel_de_frijol_b1]
   - 833.2674999999999 buy[guiso_oriental_l2]
   - 917.7577500000003 buy[burritos_de_frijol_con_carne_d1]
   - 1351.722 buy[Quesadillas_d1]
   - 899.2102812500001 buy[Rollos_de_pollo_l2]
   - 1484.476816666667 buy[cuete_mechado_l2]
   - 380.7425000000001 buy[pasta_en_salsa_blanca_l3]
   - 886.3194999999998 buy[cocktail_de_frutas_b4]
   - 1138.881550000001 buy[fideos_chinos_picantes_l2]
   - 2344.974 buy[Sincronizadas_d1] - 899.18975 buy[Nopales_con_queso_l3]
   - 1231.6957 buy[Nopales_al_ajillo_l3]
   - 513.53325 buy[pollo_con_verduras_a_la_parrilla_l2]
   - 833.2674999999999 buy[guiso_oriental_d1]
   - 1939.89174375 buy[Quesadillas_con_huitlacoche_b1]
   - 2536.6004175 buy[Hamburguesas_de_pollo_y_calabaza_l2]
   - 1099.43536 buy[mango_con_papaya_b4] - 2333.00875 buy[tinga_de_res_l2]
   - 1630.812208333334 buy[rollitos_de_carne_d1]
   - 860.3754833333333 buy[sopa_de_nopal_con_pollo_l1]
   - 1329.743658333334 buy[Champiñones_salteados_d3]
   - 1536.506333333334 buy[tostadas_de_salpicón_l2]
   - 2185.04474375 buy[Quesadillas_con_flor_de_calabaza_b1]
   - 1224.20425 buy[Guacamole_d2] - 2147.23603125 buy[lomo_al_horno_d1]
   - 2681.141493749999 buy[Huevo_con_papas_b1]
   - 2333.00875 buy[tinga_de_res_d1]
   - 2565.57274375 buy[Huevo_con_flor_de_calabaza_b1]
   - 3143.888050000001 buy[croquetas_de_papa_l2]
   - 513.53325 buy[pollo_con_verduras_a_la_parrilla_d1]
   - 110.23245 buy[caldo_de_res_con_hongos_l2]
   - 1437.309958333334 buy[Arroz_rojo_d2]
   - 1484.476816666667 buy[cuete_mechado_d1]
   - 2683.298 buy[Quesadillas_con_chorizo_b1]
   - 2698.59405 buy[Cascaras_de_papa_rellenas_l4]
   - 2349.02974375 buy[Quesadillas_con_champiñones_d1]
   - 1536.506333333334 buy[tostadas_de_salpicón_d1]
   - 2147.23603125 buy[lomo_al_horno_l2]
   - 911.7407499999999 buy[sopa_de_hongos_l1]
   - 1437.309958333334 buy[Arroz_rojo_l3]
   - 2424.803568750001 buy[Huevo_a_la_mexicana_b1]
   - 250.445375 buy[rollos_de_milanesa_estilo_japones_d1]
   - 2556.81049375 buy[Huevo_con_jamon_b1]
   - 1329.743658333334 buy[Champiñones_salteados_l4] + 13901.2 Constant
Subject To
 R0: buy[Huevo_con_huitlacoche_b1] + buy[Huevo_con_pimiento_morron_b1]
   + buy[burritos_de_frijol_con_carne_b1] + buy[Huevo_con_nopales_b1]
   + buy[Huevo_con_espinacas_b1] + buy[Quesadillas_b1]
   + buy[Sincronizadas_b1] + buy[Huevo_con_chorizo_b1]
   + buy[huevos_estrellados_con_tocino_b1] + buy[Huevo_con_champiñones_b1]
   + buy[Quesadillas_con_champiñones_b1] + buy[Quiche_de_germinado_b1]
   + buy[Chilaquiles_jaliscienses_con_huevo_b1] + buy[Pastel_de_frijol_b1]
   + buy[Quesadillas_con_huitlacoche_b1]
   + buy[Quesadillas_con_flor_de_calabaza_b1] + buy[Huevo_con_papas_b1]
   + buy[Huevo_con_flor_de_calabaza_b1] + buy[Quesadillas_con_chorizo_b1]
   + buy[Huevo_a_la_mexicana_b1] + buy[Huevo_con_jamon_b1] <= 1
 R1: buy[Champiñones_salteados_b2] <= 1
 R2: <= 0
 R3: buy[cocktail_kiwi,_platano,_pera_y_guayaba_b4]
   + buy[papaya_con_platano_b4] + buy[cocktail_de_frutas_b4]
   + buy[mango_con_papaya_b4] <= 1
 R4: <= 0
 R5: buy[sopa_de_huitlacoche_l1] + buy[crema_de_champiñones_con_pollo_l1]
   + buy[sopa_de_pasta_con_chicharos_l1] + buy[sopa_de_nopales_l1]
   + buy[sopa_de_nopal_con_pollo_l1] + buy[sopa_de_hongos_l1] <= 1
 R6: buy[Ensalada_verde_con_garbanzos_l2] + buy[Albondigas_con_soya_l2]
   + buy[entomatado_de_res_l2] + buy[rollos_de_milanesa_estilo_japones_l2]
   + buy[rollitos_de_carne_l2] + buy[Fajitas_con_Brocoli_l2]
   + buy[Pierna_adobada_l2] + buy[atun_a_la_vizcaina_l2]
   + buy[manitas_de_cerdo_y_habas_en_salsa_verde_l2]
   + buy[Albondigas_en_chipotle_l2] + buy[asado_con_papas_l2]
   + buy[tiras_de_res_sobre_pasta_l2] + buy[guiso_oriental_l2]
   + buy[Rollos_de_pollo_l2] + buy[cuete_mechado_l2]
   + buy[fideos_chinos_picantes_l2]
   + buy[pollo_con_verduras_a_la_parrilla_l2]
   + buy[Hamburguesas_de_pollo_y_calabaza_l2] + buy[tinga_de_res_l2]
   + buy[tostadas_de_salpicón_l2] + buy[croquetas_de_papa_l2]
   + buy[caldo_de_res_con_hongos_l2] + buy[lomo_al_horno_l2] <= 1
 R7: buy[Guacamole_l3] + buy[pico_de_gallo_l3]
   + buy[Espinacas_con_tocino_ahumado_l3] + buy[pasta_en_salsa_blanca_l3]
   + buy[Nopales_con_queso_l3] + buy[Nopales_al_ajillo_l3]
   + buy[Arroz_rojo_l3] <= 1
 R8: buy[Rajas_con_crema_l4] + buy[ensalada_de_alubias_l4]
   + buy[ensalada_verde_con_pera_l4] + buy[Cascaras_de_papa_rellenas_l4]
   + buy[Champiñones_salteados_l4] <= 1
 R9: <= 0
 R10: buy[Fajitas_con_Brocoli_d1]
   + buy[Hamburguesas_de_pollo_y_calabaza_d1]
   + buy[tiras_de_res_sobre_pasta_d1] + buy[atun_a_la_vizcaina_d1]
   + buy[Falafel_(croquetas_de_garbanzo)_d1]
   + buy[caldo_de_res_con_hongos_d1] + buy[croquetas_de_papa_d1]
   + buy[Quesadillas_con_flor_de_calabaza_d1]
   + buy[fajitas_con_ensalada_de_lechugas_mixtas_d1]
   + buy[Quesadillas_con_chorizo_d1] + buy[Ensalada_verde_con_garbanzos_d1]
   + buy[asado_con_papas_d1] + buy[Quesadillas_con_huitlacoche_d1]
   + buy[burritos_de_frijol_con_carne_d1] + buy[Quesadillas_d1]
   + buy[Sincronizadas_d1] + buy[guiso_oriental_d1]
   + buy[rollitos_de_carne_d1] + buy[lomo_al_horno_d1]
   + buy[tinga_de_res_d1] + buy[pollo_con_verduras_a_la_parrilla_d1]
   + buy[cuete_mechado_d1] + buy[Quesadillas_con_champiñones_d1]
   + buy[tostadas_de_salpicón_d1]
   + buy[rollos_de_milanesa_estilo_japones_d1] <= 1
 R11: buy[pico_de_gallo_d2] + buy[ensalada_verde_con_pera_d2]
   + buy[Espinacas_con_tocino_ahumado_d2] + buy[pasta_en_salsa_blanca_d2]
   + buy[Guacamole_d2] + buy[Arroz_rojo_d2] <= 1
 R12: buy[Champiñones_salteados_d3] <= 1
 R13: <= 0
Bounds
 Constant = 1
Binaries
 buy[Fajitas_con_Brocoli_d1] buy[Ensalada_verde_con_garbanzos_l2]
 buy[Albondigas_con_soya_l2] buy[Huevo_con_huitlacoche_b1]
 buy[Guacamole_l3] buy[pico_de_gallo_d2] buy[ensalada_verde_con_pera_d2]
 buy[entomatado_de_res_l2] buy[cocktail_kiwi,_platano,_pera_y_guayaba_b4]
 buy[rollos_de_milanesa_estilo_japones_l2]
 buy[Huevo_con_pimiento_morron_b1] buy[burritos_de_frijol_con_carne_b1]
 buy[Huevo_con_nopales_b1] buy[Espinacas_con_tocino_ahumado_d2]
 buy[Hamburguesas_de_pollo_y_calabaza_d1] buy[Huevo_con_espinacas_b1]
 buy[Rajas_con_crema_l4] buy[tiras_de_res_sobre_pasta_d1]
 buy[rollitos_de_carne_l2] buy[atun_a_la_vizcaina_d1] buy[Quesadillas_b1]
 buy[Falafel_(croquetas_de_garbanzo)_d1] buy[caldo_de_res_con_hongos_d1]
 buy[ensalada_de_alubias_l4] buy[Fajitas_con_Brocoli_l2]
 buy[pico_de_gallo_l3] buy[croquetas_de_papa_d1]
 buy[Espinacas_con_tocino_ahumado_l3] buy[Sincronizadas_b1]
 buy[Pierna_adobada_l2] buy[Huevo_con_chorizo_b1]
 buy[atun_a_la_vizcaina_l2] buy[huevos_estrellados_con_tocino_b1]
 buy[ensalada_verde_con_pera_l4] buy[Huevo_con_champiñones_b1]
 buy[manitas_de_cerdo_y_habas_en_salsa_verde_l2]
 buy[Albondigas_en_chipotle_l2] buy[sopa_de_huitlacoche_l1]
 buy[crema_de_champiñones_con_pollo_l1] buy[pasta_en_salsa_blanca_d2]
 buy[Quesadillas_con_flor_de_calabaza_d1]
 buy[sopa_de_pasta_con_chicharos_l1] buy[Champiñones_salteados_b2]
 buy[fajitas_con_ensalada_de_lechugas_mixtas_d1]
 buy[Quesadillas_con_chorizo_d1] buy[Quesadillas_con_champiñones_b1]
 buy[asado_con_papas_l2] buy[tiras_de_res_sobre_pasta_l2]
 buy[papaya_con_platano_b4] buy[Quiche_de_germinado_b1]
 buy[Ensalada_verde_con_garbanzos_d1] buy[asado_con_papas_d1]
 buy[Quesadillas_con_huitlacoche_d1]
 buy[Chilaquiles_jaliscienses_con_huevo_b1] buy[sopa_de_nopales_l1]
 buy[Pastel_de_frijol_b1] buy[guiso_oriental_l2]
 buy[burritos_de_frijol_con_carne_d1] buy[Quesadillas_d1]
 buy[Rollos_de_pollo_l2] buy[cuete_mechado_l2]
 buy[pasta_en_salsa_blanca_l3] buy[cocktail_de_frutas_b4]
 buy[fideos_chinos_picantes_l2] buy[Sincronizadas_d1]
 buy[Nopales_con_queso_l3] buy[Nopales_al_ajillo_l3]
 buy[pollo_con_verduras_a_la_parrilla_l2] buy[guiso_oriental_d1]
 buy[Quesadillas_con_huitlacoche_b1]
 buy[Hamburguesas_de_pollo_y_calabaza_l2] buy[mango_con_papaya_b4]
 buy[tinga_de_res_l2] buy[rollitos_de_carne_d1]
 buy[sopa_de_nopal_con_pollo_l1] buy[Champiñones_salteados_d3]
 buy[tostadas_de_salpicón_l2] buy[Quesadillas_con_flor_de_calabaza_b1]
 buy[Guacamole_d2] buy[lomo_al_horno_d1] buy[Huevo_con_papas_b1]
 buy[tinga_de_res_d1] buy[Huevo_con_flor_de_calabaza_b1]
 buy[croquetas_de_papa_l2] buy[pollo_con_verduras_a_la_parrilla_d1]
 buy[caldo_de_res_con_hongos_l2] buy[Arroz_rojo_d2] buy[cuete_mechado_d1]
 buy[Quesadillas_con_chorizo_b1] buy[Cascaras_de_papa_rellenas_l4]
 buy[Quesadillas_con_champiñones_d1] buy[tostadas_de_salpicón_d1]
 buy[lomo_al_horno_l2] buy[sopa_de_hongos_l1] buy[Arroz_rojo_l3]
 buy[Huevo_a_la_mexicana_b1] buy[rollos_de_milanesa_estilo_japones_d1]
 buy[Huevo_con_jamon_b1] buy[Champiñones_salteados_l4]
End
